original problem has 10772 variables (10771 bin, 0 int, 0 impl, 1 cont) and 12050 constraints
1/1 feasible solution given by solution candidate storage, new primal bound 9.000000e+00

presolving:
   (0.1s) running MILP presolver
   (0.1s) MILP presolver (2 rounds): 0 aggregations, 0 fixings, 0 bound changes
(round 1, exhaustive) 1 del vars, 2 del conss, 0 add conss, 0 chg bounds, 0 chg sides, 0 chg coeffs, 11986 upgd conss, 0 impls, 10247 clqs
(round 2, exhaustive) 1 del vars, 3 del conss, 1 add conss, 0 chg bounds, 1 chg sides, 5 chg coeffs, 12046 upgd conss, 0 impls, 10247 clqs
   (1.8s) probing: 1000/10771 (9.3%) - 0 fixings, 0 aggregations, 2027 implications, 0 bound changes
   (1.8s) probing: 1001/10771 (9.3%) - 0 fixings, 0 aggregations, 2029 implications, 0 bound changes
   (1.8s) probing aborted: 1000/1000 successive useless probings
presolving (3 rounds: 3 fast, 3 medium, 3 exhaustive):
 1 deleted vars, 3 deleted constraints, 1 added constraints, 0 tightened bounds, 0 added holes, 1 changed sides, 5 changed coefficients
 0 implications, 12276 cliques
presolved problem has 10771 variables (10771 bin, 0 int, 0 impl, 0 cont) and 12047 constraints
   1752 constraints of type <knapsack>
  10247 constraints of type <setppc>
     48 constraints of type <logicor>
transformed objective value is always integral (scale: 1)
Presolving Time: 1.77
transformed 1/1 original solutions to the transformed problem space

 time | node  | left  |LP iter|LP it/n|mem/heur|mdpt |vars |cons |rows |cuts |sepa|confs|strbr|  dualbound   | primalbound  |  gap   | compl. 
 10.6s|     1 |     0 | 15680 |     - |    78M |   0 |  10k|  12k|  12k|   0 |  0 |   0 |   0 | 9.000000e+00 | 9.000000e+00 |   0.00%| unknown

SCIP Status        : problem is solved [optimal solution found]
Solving Time (sec) : 10.60
Solving Nodes      : 1
Primal Bound       : +9.00000000000000e+00 (1 solutions)
Dual Bound         : +9.00000000000000e+00
Gap                : 0.00 %
